
===== New CPLEX run =====
Instance: /home/yorig/tuner/mpils-tests/instances/miplib/medium-2/supportcase40.mps
Config: /scratch/yorig/mpils-results-grid-seconds-10-no-mip-start/medium-2/2proc/seed-1/8_supportcase40_seed-1_20260503_052851/expansion/config_param_CPXPARAM_MIP_Strategy_SubAlgorithm_2_iter_3.prm
========================

Selected objective sense:  MINIMIZE
Selected objective  name:  obj
Selected RHS        name:  rhs
Selected bound      name:  bnd
Version identifier: 22.1.2.0 | 2024-11-26 | 0edbb82fd
CPXPARAM_Threads                                 8
CPXPARAM_Parallel                                1
CPXPARAM_MIP_Strategy_SubAlgorithm               2
CPXPARAM_MIP_Cuts_FlowCovers                     -1
CPXPARAM_MIP_Cuts_Implied                        1
CPXPARAM_MIP_Cuts_GUBCovers                      2
CPXPARAM_MIP_Limits_GomoryCand                   400
CPXPARAM_MIP_Cuts_PathCut                        2
CPXPARAM_MIP_Cuts_MIRCut                         -1
CPXPARAM_MIP_Cuts_Disjunctive                    2
CPXPARAM_Emphasis_MIP                            4
CPXPARAM_MIP_Strategy_BBInterval                 2
CPXPARAM_MIP_Strategy_RINSHeur                   500
CPXPARAM_TimeLimit                               10
Tried aggregator 2 times.
MIP Presolve eliminated 29622 rows and 11272 columns.
MIP Presolve modified 700 coefficients.
Aggregator did 100 substitutions.
Reduced MIP has 8469 rows, 5068 columns, and 24192 nonzeros.
Reduced MIP has 300 binaries, 0 generals, 0 SOSs, and 0 indicators.
Presolve time = 0.01 sec. (31.66 ticks)
Found incumbent of value 213568.377872 after 0.03 sec. (64.35 ticks)
Probing time = 0.00 sec. (1.10 ticks)
Tried aggregator 1 time.
Detecting symmetries...
Reduced MIP has 8469 rows, 5068 columns, and 24192 nonzeros.
Reduced MIP has 300 binaries, 0 generals, 0 SOSs, and 0 indicators.
Presolve time = 0.01 sec. (12.02 ticks)
Probing time = 0.15 sec. (0.85 ticks)
Clique table members: 100.
MIP emphasis: hidden feasible solutions.
MIP search method: dynamic search.
Parallel mode: deterministic, using up to 8 threads.
Root relaxation solution time = 0.23 sec. (175.06 ticks)

        Nodes                                         Cuts/
   Node  Left     Objective  IInf  Best Integer    Best Bound    ItCnt     Gap

*     0+    0                       213568.3779     3301.6156            98.45%
*     0+    0                        36874.2135     3301.6156            91.05%
      0     0    22536.4834    38    36874.2135    22536.4834     4631   38.88%
      0     0    22643.5396    38    36874.2135     Fract: 32     4950   38.59%
*     0+    0                        35955.8077    22643.5396            37.02%
      0     0    22722.8868    39    35955.8077     Fract: 30     5122   36.80%
*     0+    0                        28191.1344    22722.8868            19.40%
*     0+    0                        25968.7523    22722.8868            12.50%
*     0+    0                        25102.4071    22722.8868             9.48%
*     0+    0                        24970.4868    22889.6288             8.33%
Detecting symmetries...
      0     2    22722.8868    39    24970.4868    22937.5132     5122    8.14%
Elapsed time = 3.36 sec. (2096.03 ticks, tree = 0.02 MB, solutions = 7)
      9     9        cutoff          24970.4868    22937.5132     6572    8.14%
*    94+   24                        24955.8290    22937.5132             8.09%
*   103    34      integral     0    24947.2280    22937.5132     8890    8.06%
*   113    33      integral     0    24931.7505    22937.5132     8995    8.00%
*   121    31      integral     0    24918.9922    22937.5132     9074    7.95%
    125    25    24918.1473     2    24918.9922    22937.5132     9928    7.95%
*   138    21      integral     0    24914.9827    22937.5132    10018    7.94%
    195    27    24243.3855    14    24914.9827    22937.5132    13777    7.94%
*   216+   19                        24865.4613    22937.5132             7.75%
    294    46    24203.9546    31    24865.4613    22948.2317    17568    7.71%
*   361+  109                        24852.4114    22948.2317             7.66%
*   398   148      integral     0    24843.8104    22948.2317    25708    7.63%
    442   147        cutoff          24843.8104    22948.2317    26830    7.63%
    633   331    23445.5045    42    24843.8104    22948.2317    32285    7.63%
*   648+  323                        24544.0554    22948.2317             6.50%
    827   332    22993.9548    60    24544.0554    22961.7192    36492    6.45%
    961   413        cutoff          24544.0554    22972.6915    40280    6.40%
   1142   545    24461.0571    20    24544.0554    22972.6915    45988    6.40%
   1608   848    24220.8645    26    24544.0554    22996.0192    61754    6.31%
Elapsed time = 8.01 sec. (5213.37 ticks, tree = 45.10 MB, solutions = 21)
   2010  1104    24531.6131    16    24544.0554    22996.0192    81703    6.31%
*  2092  1117      integral     0    24383.9335    22996.0192    84414    5.69%
*  2103   639      integral     0    24383.8002    22996.0192    85886    5.69%

GUB cover cuts applied:  0
Implied bound cuts applied:  0
Flow path cuts applied:  0
Gomory fractional cuts applied:  107
Disjunctive cuts applied:  0
Cone linearizations applied:  0

Root node processing (before b&c):
  Real time             =    3.29 sec. (2093.12 ticks)
Parallel b&c, 8 threads:
  Real time             =    6.71 sec. (4639.19 ticks)
  Sync time (average)   =    2.03 sec.
  Wait time (average)   =    0.00 sec.
                          ------------
Total (root+branch&cut) =   10.00 sec. (6732.32 ticks)
Gap: 5.23%
Upper bound: 24383.8
Lower bound: 23109.5
End of CPLEX run. Time: 10.0076 seconds

===== New CPLEX run =====
Instance: /home/yorig/tuner/mpils-tests/instances/miplib/medium-2/supportcase40.mps
Config: /scratch/yorig/mpils-results-grid-seconds-10-no-mip-start/medium-2/2proc/seed-1/8_supportcase40_seed-1_20260503_052851/expansion/config_param_CPXPARAM_MIP_Strategy_SubAlgorithm_3_iter_3.prm
========================

Selected objective sense:  MINIMIZE
Selected objective  name:  obj
Selected RHS        name:  rhs
Selected bound      name:  bnd
Version identifier: 22.1.2.0 | 2024-11-26 | 0edbb82fd
CPXPARAM_Threads                                 8
CPXPARAM_Parallel                                1
CPXPARAM_MIP_Strategy_SubAlgorithm               3
CPXPARAM_MIP_Cuts_FlowCovers                     -1
CPXPARAM_MIP_Cuts_Implied                        1
CPXPARAM_MIP_Cuts_GUBCovers                      2
CPXPARAM_MIP_Limits_GomoryCand                   400
CPXPARAM_MIP_Cuts_PathCut                        2
CPXPARAM_MIP_Cuts_MIRCut                         -1
CPXPARAM_MIP_Cuts_Disjunctive                    2
CPXPARAM_Emphasis_MIP                            4
CPXPARAM_MIP_Strategy_BBInterval                 2
CPXPARAM_MIP_Strategy_RINSHeur                   500
CPXPARAM_TimeLimit                               10
Tried aggregator 2 times.
MIP Presolve eliminated 29622 rows and 11272 columns.
MIP Presolve modified 700 coefficients.
Aggregator did 100 substitutions.
Reduced MIP has 8469 rows, 5068 columns, and 24192 nonzeros.
Reduced MIP has 300 binaries, 0 generals, 0 SOSs, and 0 indicators.
Presolve time = 0.01 sec. (31.66 ticks)
Found incumbent of value 213415.247388 after 0.04 sec. (79.38 ticks)
Probing time = 0.00 sec. (1.10 ticks)
Tried aggregator 1 time.
Detecting symmetries...
Reduced MIP has 8469 rows, 5068 columns, and 24192 nonzeros.
Reduced MIP has 300 binaries, 0 generals, 0 SOSs, and 0 indicators.
Presolve time = 0.01 sec. (12.02 ticks)
Probing time = 0.05 sec. (0.85 ticks)
Clique table members: 100.
MIP emphasis: hidden feasible solutions.
MIP search method: dynamic search.
Parallel mode: deterministic, using up to 8 threads.
Root relaxation solution time = 0.17 sec. (175.25 ticks)

        Nodes                                         Cuts/
   Node  Left     Objective  IInf  Best Integer    Best Bound    ItCnt     Gap

*     0+    0                       213415.2474     3301.6156            98.45%
*     0+    0                        36874.2135     3301.6156            91.05%
      0     0    22536.4834    38    36874.2135    22536.4834     4631   38.88%
      0     0    22646.8363    40    36874.2135     Fract: 34     9101   38.58%
*     0+    0                        36106.8474    22646.8363            37.28%
      0     0    22709.9417    39    36106.8474      Cuts: 27    13615   37.10%
*     0+    0                        34386.2312    22709.9417            33.96%
      0     0    22818.7291    44    34386.2312     Fract: 25    18720   33.64%
*     0+    0                        25227.5079    22818.7291             9.55%
      0     0    22821.5771    46    25227.5079      Fract: 1    23875    9.54%
Detecting symmetries...
      0     2    22821.5771    46    25227.5079    22877.1268    28828    9.32%
Elapsed time = 8.09 sec. (7867.70 ticks, tree = 0.02 MB, solutions = 5)
      1     3    23296.1782    34    25227.5079    22877.1268    33453    9.32%
      2     4    23987.8598    27    25227.5079    22877.1268    38633    9.32%
      3     5    24777.7937    21    25227.5079    22877.1268    43917    9.32%
      5     3    22832.0754    42    25227.5079    22877.1268    33880    9.32%
      8     8    23459.5818    35    25227.5079    22877.1268    58510    9.32%

GUB cover cuts applied:  0
Implied bound cuts applied:  0
Flow path cuts applied:  0
Lift and project cuts applied:  1
Gomory fractional cuts applied:  105
Disjunctive cuts applied:  0
Cone linearizations applied:  0

Root node processing (before b&c):
  Real time             =    7.88 sec. (7626.29 ticks)
Parallel b&c, 8 threads:
  Real time             =    2.13 sec. (2052.84 ticks)
  Sync time (average)   =    0.85 sec.
  Wait time (average)   =    0.00 sec.
                          ------------
Total (root+branch&cut) =   10.01 sec. (9679.13 ticks)
Gap: 9.21%
Upper bound: 25198.4
Lower bound: 22877.1
End of CPLEX run. Time: 10.0079 seconds

===== New CPLEX run =====
Instance: /home/yorig/tuner/mpils-tests/instances/miplib/medium-2/supportcase40.mps
Config: /scratch/yorig/mpils-results-grid-seconds-10-no-mip-start/medium-2/2proc/seed-1/8_supportcase40_seed-1_20260503_052851/expansion/config_param_CPXPARAM_MIP_Strategy_SubAlgorithm_4_iter_3.prm
========================

Selected objective sense:  MINIMIZE
Selected objective  name:  obj
Selected RHS        name:  rhs
Selected bound      name:  bnd
Version identifier: 22.1.2.0 | 2024-11-26 | 0edbb82fd
CPXPARAM_Threads                                 8
CPXPARAM_Parallel                                1
CPXPARAM_MIP_Strategy_SubAlgorithm               4
CPXPARAM_MIP_Cuts_FlowCovers                     -1
CPXPARAM_MIP_Cuts_Implied                        1
CPXPARAM_MIP_Cuts_GUBCovers                      2
CPXPARAM_MIP_Limits_GomoryCand                   400
CPXPARAM_MIP_Cuts_PathCut                        2
CPXPARAM_MIP_Cuts_MIRCut                         -1
CPXPARAM_MIP_Cuts_Disjunctive                    2
CPXPARAM_Emphasis_MIP                            4
CPXPARAM_MIP_Strategy_BBInterval                 2
CPXPARAM_MIP_Strategy_RINSHeur                   500
CPXPARAM_TimeLimit                               10
Tried aggregator 2 times.
MIP Presolve eliminated 29622 rows and 11272 columns.
MIP Presolve modified 700 coefficients.
Aggregator did 100 substitutions.
Reduced MIP has 8469 rows, 5068 columns, and 24192 nonzeros.
Reduced MIP has 300 binaries, 0 generals, 0 SOSs, and 0 indicators.
Presolve time = 0.01 sec. (31.66 ticks)
Found incumbent of value 213568.377872 after 0.03 sec. (64.35 ticks)
Probing time = 0.00 sec. (1.10 ticks)
Tried aggregator 1 time.
Detecting symmetries...
Reduced MIP has 8469 rows, 5068 columns, and 24192 nonzeros.
Reduced MIP has 300 binaries, 0 generals, 0 SOSs, and 0 indicators.
Presolve time = 0.01 sec. (12.02 ticks)
Probing time = 0.12 sec. (0.85 ticks)
Clique table members: 100.
MIP emphasis: hidden feasible solutions.
MIP search method: dynamic search.
Parallel mode: deterministic, using up to 8 threads.
Root relaxation solution time = 0.18 sec. (175.25 ticks)

        Nodes                                         Cuts/
   Node  Left     Objective  IInf  Best Integer    Best Bound    ItCnt     Gap

*     0+    0                       213568.3779     3301.6156            98.45%
*     0+    0                        36874.2135     3301.6156            91.05%
      0     0    22536.4834    38    36874.2135    22536.4834     4631   38.88%
      0     0    22643.5396    38    36874.2135     Fract: 32     4650   38.59%
      0     0    22689.7380    38    36874.2135     Fract: 17     4671   38.47%
*     0+    0                        33235.4628    22689.7380            31.73%
*     0+    0                        28198.1530    22689.7380            19.53%
*     0+    0                        26786.7287    22689.7380            15.29%
Detecting symmetries...
      0     2    22689.7380    38    26786.7287    22689.7380     4671   15.29%
Elapsed time = 10.01 sec. (5637.82 ticks, tree = 0.02 MB, solutions = 5)

GUB cover cuts applied:  0
Implied bound cuts applied:  0
Flow path cuts applied:  0
Gomory fractional cuts applied:  47
Disjunctive cuts applied:  0
Cone linearizations applied:  0

Root node processing (before b&c):
  Real time             =    9.69 sec. (5633.00 ticks)
Parallel b&c, 8 threads:
  Real time             =    0.32 sec. (107.80 ticks)
  Sync time (average)   =    0.14 sec.
  Wait time (average)   =    0.00 sec.
                          ------------
Total (root+branch&cut) =   10.01 sec. (5740.80 ticks)
Gap: 15.29%
Upper bound: 26786.7
Lower bound: 22691.6
End of CPLEX run. Time: 10.0128 seconds
